Solver command line: ['C:\\Program Files\\IBM\\ILOG\\CPLEX_Studio2211\\cplex\\bin\\x64_win64\\cplex.exe']


Welcome to IBM(R) ILOG(R) CPLEX(R) Interactive Optimizer 22.1.1.0
  with Simplex, Mixed Integer & Barrier Optimizers
5725-A06 5725-A29 5724-Y48 5724-Y49 5724-Y54 5724-Y55 5655-Y21
Copyright IBM Corp. 1988, 2022.  All Rights Reserved.

Type 'help' for a list of available commands.
Type 'help' followed by a command name for more
information on commands.

CPLEX> Logfile 'cplex.log' closed.
Logfile 'C:\Users\wangy\Documents\GitHub\re_optimization\result_site_specific_2\tmp145kvy80.cplex.log' open.
CPLEX> Problem 'C:\Users\wangy\Documents\GitHub\re_optimization\result_site_specific_2\tmp1anoynce.pyomo.lp' read.
Read time = 0.33 sec. (8.90 ticks)
CPLEX> Problem name         : C:\Users\wangy\Documents\GitHub\re_optimization\result_site_specific_2\tmp1anoynce.pyomo.lp
Objective sense      : Minimize
Variables            :   64323  [Nneg: 30685,  Free: 11732,  Binary: 6,
                                 Other: 21900]
Objective nonzeros   :      28
Linear constraints   :   86219  [Less: 42355,  Greater: 5,  Equal: 43859]
  Nonzeros           :  219247
  RHS nonzeros       :    3722

Variables            : Min LB: 0.000000         Max UB: 1.000000       
Objective nonzeros   : Min   : 1.000000         Max   : 1.000000       
Linear constraints   :
  Nonzeros           : Min   : 0.002339912      Max   : 100000.0       
  RHS nonzeros       : Min   : 0.004000000      Max   : 100000.0       
CPLEX> Version identifier: 22.1.1.0 | 2022-11-27 | 9160aff4d
Tried aggregator 3 times.
MIP Presolve eliminated 52599 rows and 32156 columns.
Aggregator did 11877 substitutions.
Reduced MIP has 21743 rows, 20290 columns, and 66209 nonzeros.
Reduced MIP has 2 binaries, 0 generals, 0 SOSs, and 0 indicators.
Presolve time = 0.23 sec. (220.69 ticks)
Found incumbent of value 1.2402300e+07 after 0.34 sec. (321.66 ticks)
Probing time = 0.00 sec. (1.13 ticks)
Tried aggregator 1 time.
Detecting symmetries...
MIP Presolve eliminated 1221 rows and 1221 columns.
Reduced MIP has 20522 rows, 19069 columns, and 63157 nonzeros.
Reduced MIP has 2 binaries, 0 generals, 0 SOSs, and 0 indicators.
Presolve time = 0.05 sec. (49.34 ticks)
Probing time = 0.02 sec. (0.96 ticks)
MIP emphasis: balance optimality and feasibility.
MIP search method: dynamic search.
Parallel mode: deterministic, using up to 16 threads.
Root relaxation solution time = 0.38 sec. (249.21 ticks)

        Nodes                                         Cuts/
   Node  Left     Objective  IInf  Best Integer    Best Bound    ItCnt     Gap

*     0+    0                       1.24023e+07   -51413.0553           100.41%
*     0     0      integral     0  1651121.2560  1651121.2560     3319    0.00%
Elapsed time = 0.91 sec. (682.94 ticks, tree = 0.00 MB, solutions = 2)

Root node processing (before b&c):
  Real time             =    0.91 sec. (685.55 ticks)
Parallel b&c, 16 threads:
  Real time             =    0.00 sec. (0.00 ticks)
  Sync time (average)   =    0.00 sec.
  Wait time (average)   =    0.00 sec.
                          ------------
Total (root+branch&cut) =    0.91 sec. (685.55 ticks)

Solution pool: 2 solutions saved.

MIP - Integer optimal solution:  Objective =  1.6511212560e+06
Solution time =    0.91 sec.  Iterations = 3319  Nodes = 0
Deterministic time = 685.74 ticks  (756.88 ticks/sec)

CPLEX> Incumbent solution written to file 'C:\Users\wangy\Documents\GitHub\re_optimization\result_site_specific_2\tmpxlnts7tw.cplex.sol'.
CPLEX> 
